* UNL main file generated by charmmgen
* author: Victor Bazterra 2004 CHPC
* 

Read rtf card name H3E_CHARMM.rtf

Read param card name H3E_CHARMM.prm

Read sequence card
* Reading the coordinates of residue
* 
    1
UNL
Generate UNL setup
Read coor card free
* Residues coordinate
* 
   44
    1    1 UNL  C     -5.68800   3.21100   0.61100
    2    1 UNL  N     -5.48700   1.87600   0.10200
    3    1 UNL  C1    -4.32500   1.16600   0.10000
    4    1 UNL  C2    -4.60800  -0.05500  -0.48500
    5    1 UNL  C3    -5.98400   0.03800  -0.79600
    6    1 UNL  N1    -6.52200   1.20900  -0.44100
    7    1 UNL  C4    -3.63600  -1.12200  -0.68500
    8    1 UNL  C5    -4.01900  -2.32900  -1.28300
    9    1 UNL  C6    -3.08300  -3.34800  -1.47300
   10    1 UNL  C7    -1.80300  -3.05700  -1.03000
   11    1 UNL  C8    -1.47200  -1.84200  -0.44300
   12    1 UNL  N2    -2.37800  -0.84900  -0.25600
   13    1 UNL  C9    -0.08900  -1.92700  -0.13100
   14    1 UNL  C10    0.32000  -3.17700  -0.54800
   15    1 UNL  O     -0.71600  -3.87100  -1.09600
   16    1 UNL  C11    0.72700  -0.90100   0.49900
   17    1 UNL  C12    0.31400   0.38700   0.89400
   18    1 UNL  N3     1.30500   1.09500   1.44700
   19    1 UNL  N4     2.36300   0.25700   1.38900
   20    1 UNL  C13    2.05800  -0.96100   0.84300
   21    1 UNL  C14    3.65200   0.67200   1.93000
   22    1 UNL  C15    4.68200   0.86600   0.84400
   23    1 UNL  C16    4.52700   1.88400  -0.11000
   24    1 UNL  C17    5.48000   2.06700  -1.11200
   25    1 UNL  C18    6.59900   1.23800  -1.17000
   26    1 UNL  C19    6.76600   0.22700  -0.22700
   27    1 UNL  C20    5.81400   0.04100   0.77700
   28    1 UNL  H     -6.03000   3.84500  -0.21100
   29    1 UNL  H1    -4.74600   3.59400   1.01100
   30    1 UNL  H2    -6.44000   3.16800   1.40200
   31    1 UNL  H3    -3.40700   1.57000   0.50300
   32    1 UNL  H4    -6.62500  -0.69500  -1.26700
   33    1 UNL  H5    -5.04100  -2.49400  -1.60900
   34    1 UNL  H6    -3.33200  -4.29700  -1.93000
   35    1 UNL  H7     1.26600  -3.69900  -0.53000
   36    1 UNL  H8    -0.66400   0.84400   0.80700
   37    1 UNL  H9     2.80500  -1.73400   0.74000
   38    1 UNL  H10    3.95700  -0.10200   2.64400
   39    1 UNL  H11    3.51100   1.60400   2.49000
   40    1 UNL  H12    3.65600   2.53700  -0.07800
   41    1 UNL  H13    5.34800   2.85600  -1.84800
   42    1 UNL  H14    7.34000   1.38200  -1.95200
   43    1 UNL  H15    7.64000  -0.41800  -0.27300
   44    1 UNL  H16    5.96500  -0.75400   1.50400
Energy ihbfrq 0 inbfrq -1
Open write card unit 14 name tmp.out
Write energy card unit 14
* UNL energy before the optimization
* 
Minimise Abnr Nstep 5000 Tolgrd 0.00001
Write energy card unit 14
* UNL energy after optimization
* 
Write coor card unit 14
* UNL energy after optimization
* 
