* UNL main file generated by charmmgen
* author: Victor Bazterra 2004 CHPC
* 

Read rtf card name ref_CHARMM.rtf

Read param card name ref_CHARMM.prm

Read sequence card
* Reading the coordinates of residue
* 
    1
UNL
Generate UNL setup
Read coor card free
* Residues coordinate
* 
   44
    1    1 UNL  C     20.57900  42.81300  10.76700
    2    1 UNL  C1    20.92500  42.05300   9.65200
    3    1 UNL  C2    20.55400  42.49900   8.39200
    4    1 UNL  N     21.73500  41.21800  13.88200
    5    1 UNL  C3    19.86400  43.69300   8.28900
    6    1 UNL  C4    19.54800  44.38500   9.46100
    7    1 UNL  N1    16.68500  47.85600  11.02900
    8    1 UNL  C5    18.74000  45.50600   9.09200
    9    1 UNL  C6    18.68600  45.43000   7.74000
   10    1 UNL  C7    18.16100  46.46700  10.02200
   11    1 UNL  C8    16.96900  47.21600   9.91300
   12    1 UNL  N2    17.70500  47.54100  11.86700
   13    1 UNL  C9    17.76100  48.10700  13.21200
   14    1 UNL  C10   18.00200  47.07100  14.28700
   15    1 UNL  C11   17.33400  45.85400  14.28100
   16    1 UNL  N3    19.90100  43.97100  10.68100
   17    1 UNL  C12   20.70800  42.44200  15.71700
   18    1 UNL  N4    20.94900  42.24100  14.30000
   19    1 UNL  C13   21.70400  41.31100  12.57200
   20    1 UNL  C14   20.91700  42.39300  12.13400
   21    1 UNL  C15   20.45800  42.96300  13.28600
   22    1 UNL  O     19.36100  44.36200   7.21100
   23    1 UNL  C16   18.59100  46.70800  11.30900
   24    1 UNL  C17   18.83500  47.35300  15.35500
   25    1 UNL  C18   18.94700  46.46800  16.42200
   26    1 UNL  C19   18.26000  45.28100  16.40900
   27    1 UNL  C20   17.48100  44.96000  15.32400
   28    1 UNL  H     21.48400  41.11300   9.76900
   29    1 UNL  H1    20.80300  41.91500   7.49400
   30    1 UNL  H2    18.14700  46.16200   7.12100
   31    1 UNL  H3    16.35100  47.26000   9.00400
   32    1 UNL  H4    18.57800  48.84300  13.24700
   33    1 UNL  H5    16.78100  48.56500  13.41400
   34    1 UNL  H6    16.67900  45.59800  13.43500
   35    1 UNL  H7    21.42500  41.84400  16.29900
   36    1 UNL  H8    20.83400  43.50700  15.96300
   37    1 UNL  H9    19.68300  42.12700  15.96300
   38    1 UNL  H10   22.23200  40.62300  11.89500
   39    1 UNL  H11   19.80800  43.84700  13.36600
   40    1 UNL  H12   19.49100  46.29400  11.78700
   41    1 UNL  H13   19.41500  48.28800  15.36000
   42    1 UNL  H14   19.58900  46.72100  17.27900
   43    1 UNL  H15   18.33200  44.59000  17.26200
   44    1 UNL  H16   16.97100  43.98600  15.28500
Energy ihbfrq 0 inbfrq -1
Open write card unit 14 name tmp.out
Write energy card unit 14
* UNL energy before the optimization
* 
Minimise Abnr Nstep 5000 Tolgrd 0.00001
Write energy card unit 14
* UNL energy after optimization
* 
Write coor card unit 14
* UNL energy after optimization
* 
