* UNL main file generated by charmmgen
* author: Victor Bazterra 2004 CHPC
* 

Read rtf card name mut_CHARMM.rtf

Read param card name mut_CHARMM.prm

Read sequence card
* Reading the coordinates of residue
* 
    1
UNL
Generate UNL setup
Read coor card free
* Residues coordinate
* 
   41
    1    1 UNL  N     22.68300  41.94900   6.95800
    2    1 UNL  C     22.26200  43.24700   6.89700
    3    1 UNL  C1    21.69800  43.53300   8.12400
    4    1 UNL  C2    21.83800  42.32200   8.84600
    5    1 UNL  N1    22.43700  41.36100   8.13700
    6    1 UNL  C3    21.10500  44.79300   8.55000
    7    1 UNL  C4    21.06100  45.90800   7.70400
    8    1 UNL  C5    20.48600  47.10200   8.14200
    9    1 UNL  C6    19.98900  47.07200   9.43500
   10    1 UNL  C7    20.05500  45.93900  10.23700
   11    1 UNL  N2    20.61500  44.77600   9.81400
   12    1 UNL  C8    19.44900  46.30200  11.46900
   13    1 UNL  C9    19.06000  47.61800  11.32900
   14    1 UNL  O     19.38400  48.09500  10.09600
   15    1 UNL  C10   19.27300  45.45700  12.63900
   16    1 UNL  C11   19.64000  44.10200  12.77200
   17    1 UNL  N3    19.34100  43.60900  13.97900
   18    1 UNL  N4    18.76700  44.65100  14.61500
   19    1 UNL  C12   18.72000  45.78800  13.85500
   20    1 UNL  C13   18.31900  44.50500  15.99500
   21    1 UNL  C14   16.81500  44.55700  16.10800
   22    1 UNL  C15   16.18500  45.60400  16.79600
   23    1 UNL  C16   14.79400  45.64600  16.90000
   24    1 UNL  C17   14.01900  44.64200  16.32200
   25    1 UNL  C18   14.63300  43.59400  15.63900
   26    1 UNL  C19   16.02400  43.55000  15.53300
   27    1 UNL  H     23.14300  41.40200   6.23700
   28    1 UNL  H1    22.40500  43.82600   5.99600
   29    1 UNL  H2    21.52500  42.11100   9.86100
   30    1 UNL  H3    21.47000  45.86700   6.70000
   31    1 UNL  H4    20.42900  47.98900   7.52500
   32    1 UNL  H5    18.56400  48.32400  11.98000
   33    1 UNL  H6    20.11100  43.45000  12.04700
   34    1 UNL  H7    18.29300  46.70400  14.23800
   35    1 UNL  H8    18.69600  43.55200  16.38500
   36    1 UNL  H9    18.79600  45.30900  16.56700
   37    1 UNL  H10   16.77100  46.39700  17.25600
   38    1 UNL  H11   14.31200  46.46100  17.43400
   39    1 UNL  H12   12.93500  44.67500  16.40300
   40    1 UNL  H13   14.03000  42.81100  15.18600
   41    1 UNL  H14   16.49000  42.72700  14.99300
Energy ihbfrq 0 inbfrq -1
Open write card unit 14 name tmp.out
Write energy card unit 14
* UNL energy before the optimization
* 
Minimise Abnr Nstep 5000 Tolgrd 0.00001
Write energy card unit 14
* UNL energy after optimization
* 
Write coor card unit 14
* UNL energy after optimization
* 
